(set-logic QF_S)
(declare-fun var_0xINPUT_157132 () String)
(assert (and (= (len var_0xINPUT_157132) 0) (= (len var_0xINPUT_157132) 0) (not (= var_0xINPUT_157132 "Example:")) (not (= var_0xINPUT_157132 "EMy6QEb2YT"))))
(check-sat var_0xINPUT_157132)